; benchmark generated from python API
(set-info :status unknown)
(declare-fun x_day () Int)
(declare-fun x_month () Int)
(declare-fun x_year () Int)
(declare-fun x_epoch () Int)
(declare-fun y_day () Int)
(declare-fun y_month () Int)
(declare-fun y_year () Int)
(declare-fun y_epoch () Int)
(declare-fun x_shift_period_855503_day () Int)
(declare-fun x_shift_period_855503_month () Int)
(declare-fun x_shift_period_855503_year () Int)
(declare-fun x_shift_period_855503_epoch () Int)
(declare-fun x_shift_period_855503_shift_period_857901_day () Int)
(declare-fun x_shift_period_855503_shift_period_857901_month () Int)
(declare-fun x_shift_period_855503_shift_period_857901_year () Int)
(declare-fun x_shift_period_855503_shift_period_857901_epoch () Int)
(assert
 (let (($x568 (> x_month 2)))
 (let (($x672 (= (mod x_year 4) 0)))
 (let (($x356 (= (mod x_year 100) 0)))
 (let (($x938 (= (mod x_year 400) 0)))
 (let (($x1010 (ite $x938 true (ite $x356 false $x672))))
 (let (($x652 (= x_month 9)))
 (let ((?x567 (ite $x652 243 (ite (= x_month 10) 273 (ite (= x_month 11) 304 334)))))
 (let (($x395 (= x_month 6)))
 (let ((?x112 (ite $x395 151 (ite (= x_month 7) 181 (ite (= x_month 8) 212 ?x567)))))
 (let (($x1615 (= x_month 5)))
 (let (($x788 (= x_month 4)))
 (let (($x231 (= x_month 3)))
 (let (($x620 (= x_month 2)))
 (let ((?x315 (ite $x620 31 (ite $x231 59 (ite $x788 90 (ite $x1615 120 ?x112))))))
 (let (($x503 (= x_month 1)))
 (let ((?x943 (ite $x503 0 ?x315)))
 (let ((?x1268 (- (+ (* 365 (- x_year 1)) (div (- x_year 1) 4)) (div (- x_year 1) 100))))
 (let ((?x328 (+ (+ ?x1268 (div (- x_year 1) 400)) (+ ?x943 (ite (and $x1010 $x568) 1 0)))))
 (let (($x182 (<= x_year 2400)))
 (let (($x1406 (>= x_year 1600)))
 (let ((?x564 (ite (or $x788 $x395 $x652 (= x_month 11)) 30 31)))
 (let ((?x889 (ite $x620 (ite $x1010 29 28) ?x564)))
 (let (($x1426 (>= x_day 1)))
 (let (($x150 (<= x_month 12)))
 (let (($x1627 (>= x_month 1)))
 (and $x1627 $x150 $x1426 (<= x_day ?x889) $x1406 $x182 (= x_epoch (+ ?x328 (- x_day 1))))))))))))))))))))))))))))))
(assert
 (let (($x1440 (= (mod y_year 4) 0)))
 (let (($x402 (= (mod y_year 100) 0)))
 (let (($x3524 (= (mod y_year 400) 0)))
 (let (($x389 (ite $x3524 true (ite $x402 false $x1440))))
 (let (($x5009 (= y_month 9)))
 (let ((?x3170 (ite $x5009 243 (ite (= y_month 10) 273 (ite (= y_month 11) 304 334)))))
 (let (($x4415 (= y_month 6)))
 (let ((?x376 (ite $x4415 151 (ite (= y_month 7) 181 (ite (= y_month 8) 212 ?x3170)))))
 (let (($x1502 (= y_month 4)))
 (let ((?x4261 (ite (= y_month 3) 59 (ite $x1502 90 (ite (= y_month 5) 120 ?x376)))))
 (let (($x400 (= y_month 2)))
 (let ((?x3266 (ite (= y_month 1) 0 (ite $x400 31 ?x4261))))
 (let ((?x5469 (- (+ (* 365 (- y_year 1)) (div (- y_year 1) 4)) (div (- y_year 1) 100))))
 (let ((?x2880 (+ (+ ?x5469 (div (- y_year 1) 400)) (+ ?x3266 (ite (and $x389 (> y_month 2)) 1 0)))))
 (let (($x1399 (<= y_year 2400)))
 (let (($x4477 (>= y_year 1600)))
 (let ((?x192 (ite (or $x1502 $x4415 $x5009 (= y_month 11)) 30 31)))
 (let (($x3494 (>= y_day 1)))
 (let (($x4756 (<= y_month 12)))
 (let (($x5309 (>= y_month 1)))
 (and $x5309 $x4756 $x3494 (<= y_day (ite $x400 (ite $x389 29 28) ?x192)) $x4477 $x1399 (= y_epoch (+ ?x2880 (- y_day 1)))))))))))))))))))))))))
(assert
 (let (($x1426 (>= x_day 1)))
 (let (($x395 (= x_month 6)))
 (let (($x2324 (= x_year 2023)))
 (let (($x201 (and $x2324 $x395 $x1426)))
 (let (($x3728 (> x_year 2023)))
 (or $x3728 (and $x2324 (> x_month 6)) $x201)))))))
(assert
 (let (($x5106 (= (mod x_shift_period_855503_year 4) 0)))
 (let (($x345 (= (mod x_shift_period_855503_year 100) 0)))
 (let (($x2635 (= (mod x_shift_period_855503_year 400) 0)))
 (let (($x5316 (ite $x2635 true (ite $x345 false $x5106))))
 (let ((?x2448 (ite (= x_shift_period_855503_month 10) 273 (ite (= x_shift_period_855503_month 11) 304 334))))
 (let (($x2288 (= x_shift_period_855503_month 9)))
 (let ((?x333 (ite (= x_shift_period_855503_month 7) 181 (ite (= x_shift_period_855503_month 8) 212 (ite $x2288 243 ?x2448)))))
 (let (($x3240 (= x_shift_period_855503_month 6)))
 (let (($x3319 (= x_shift_period_855503_month 4)))
 (let ((?x1731 (ite $x3319 90 (ite (= x_shift_period_855503_month 5) 120 (ite $x3240 151 ?x333)))))
 (let (($x375 (= x_shift_period_855503_month 2)))
 (let ((?x4076 (ite (= x_shift_period_855503_month 1) 0 (ite $x375 31 (ite (= x_shift_period_855503_month 3) 59 ?x1731)))))
 (let ((?x1100 (+ ?x4076 (ite (and $x5316 (> x_shift_period_855503_month 2)) 1 0))))
 (let ((?x1344 (+ (* 365 (- x_shift_period_855503_year 1)) (div (- x_shift_period_855503_year 1) 4))))
 (let ((?x3423 (+ (- ?x1344 (div (- x_shift_period_855503_year 1) 100)) (div (- x_shift_period_855503_year 1) 400))))
 (let (($x1519 (= x_shift_period_855503_epoch (+ (+ ?x3423 ?x1100) (- x_shift_period_855503_day 1)))))
 (let (($x4147 (<= x_shift_period_855503_year 2400)))
 (let (($x1402 (>= x_shift_period_855503_year 1600)))
 (let ((?x3644 (ite (or $x3319 $x3240 $x2288 (= x_shift_period_855503_month 11)) 30 31)))
 (let ((?x1512 (ite $x375 (ite $x5316 29 28) ?x3644)))
 (let (($x2400 (>= x_shift_period_855503_day 1)))
 (let (($x4446 (<= x_shift_period_855503_month 12)))
 (let (($x2526 (>= x_shift_period_855503_month 1)))
 (and $x2526 $x4446 $x2400 (<= x_shift_period_855503_day ?x1512) $x1402 $x4147 $x1519)))))))))))))))))))))))))
(assert
 (let ((?x1306 (* 12 x_year)))
 (let ((?x2663 (+ ?x1306 (- x_month 1))))
 (let ((?x582 (+ ?x2663 1)))
 (let ((?x387 (div ?x582 12)))
 (= x_shift_period_855503_year ?x387))))))
(assert
 (let ((?x3810 (+ (mod (+ (+ (* 12 x_year) (- x_month 1)) 1) 12) 1)))
 (= x_shift_period_855503_month ?x3810)))
(assert
 (let ((?x3810 (+ (mod (+ (+ (* 12 x_year) (- x_month 1)) 1) 12) 1)))
 (let ((?x4607 (ite (or (= ?x3810 4) (= ?x3810 6) (= ?x3810 9) (= ?x3810 11)) 30 31)))
 (let ((?x1306 (* 12 x_year)))
 (let ((?x2663 (+ ?x1306 (- x_month 1))))
 (let ((?x582 (+ ?x2663 1)))
 (let ((?x387 (div ?x582 12)))
 (let (($x2085 (ite (= (mod ?x387 400) 0) true (ite (= (mod ?x387 100) 0) false (= (mod ?x387 4) 0)))))
 (let ((?x2463 (ite (= ?x3810 2) (ite $x2085 29 28) ?x4607)))
 (let ((?x2739 (ite (<= x_day ?x2463) x_day ?x2463)))
 (let (($x737 (= x_month 11)))
 (let (($x652 (= x_month 9)))
 (let (($x395 (= x_month 6)))
 (let (($x788 (= x_month 4)))
 (let ((?x564 (ite (or $x788 $x395 $x652 $x737) 30 31)))
 (let (($x672 (= (mod x_year 4) 0)))
 (let (($x356 (= (mod x_year 100) 0)))
 (let (($x938 (= (mod x_year 400) 0)))
 (let (($x1010 (ite $x938 true (ite $x356 false $x672))))
 (let (($x620 (= x_month 2)))
 (let ((?x889 (ite $x620 (ite $x1010 29 28) ?x564)))
 (let (($x242 (= x_day ?x889)))
 (let ((?x2525 (ite false (ite $x242 ?x2463 ?x2739) ?x2739)))
 (= x_shift_period_855503_day ?x2525))))))))))))))))))))))))
(assert
 (let (($x1361 (= (mod x_shift_period_855503_shift_period_857901_year 4) 0)))
 (let (($x2735 (= (mod x_shift_period_855503_shift_period_857901_year 100) 0)))
 (let (($x2406 (= (mod x_shift_period_855503_shift_period_857901_year 400) 0)))
 (let (($x3315 (ite $x2406 true (ite $x2735 false $x1361))))
 (let ((?x3929 (ite (and $x3315 (> x_shift_period_855503_shift_period_857901_month 2)) 1 0)))
 (let (($x3403 (= x_shift_period_855503_shift_period_857901_month 11)))
 (let ((?x5353 (ite (= x_shift_period_855503_shift_period_857901_month 10) 273 (ite $x3403 304 334))))
 (let (($x1422 (= x_shift_period_855503_shift_period_857901_month 9)))
 (let ((?x3586 (ite (= x_shift_period_855503_shift_period_857901_month 8) 212 (ite $x1422 243 ?x5353))))
 (let ((?x4748 (ite (= x_shift_period_855503_shift_period_857901_month 7) 181 ?x3586)))
 (let (($x2734 (= x_shift_period_855503_shift_period_857901_month 6)))
 (let ((?x2633 (ite (= x_shift_period_855503_shift_period_857901_month 5) 120 (ite $x2734 151 ?x4748))))
 (let (($x4703 (= x_shift_period_855503_shift_period_857901_month 4)))
 (let ((?x2676 (ite (= x_shift_period_855503_shift_period_857901_month 3) 59 (ite $x4703 90 ?x2633))))
 (let (($x1233 (= x_shift_period_855503_shift_period_857901_month 2)))
 (let ((?x1394 (ite (= x_shift_period_855503_shift_period_857901_month 1) 0 (ite $x1233 31 ?x2676))))
 (let ((?x5227 (+ (* 365 (- x_shift_period_855503_shift_period_857901_year 1)) (div (- x_shift_period_855503_shift_period_857901_year 1) 4))))
 (let ((?x1618 (- ?x5227 (div (- x_shift_period_855503_shift_period_857901_year 1) 100))))
 (let ((?x412 (+ ?x1618 (div (- x_shift_period_855503_shift_period_857901_year 1) 400))))
 (let ((?x4506 (+ (+ ?x412 (+ ?x1394 ?x3929)) (- x_shift_period_855503_shift_period_857901_day 1))))
 (let (($x3167 (<= x_shift_period_855503_shift_period_857901_year 2400)))
 (let (($x4014 (>= x_shift_period_855503_shift_period_857901_year 1600)))
 (let ((?x3152 (ite (or $x4703 $x2734 $x1422 $x3403) 30 31)))
 (let (($x4723 (<= x_shift_period_855503_shift_period_857901_day (ite $x1233 (ite $x3315 29 28) ?x3152))))
 (let (($x1311 (>= x_shift_period_855503_shift_period_857901_day 1)))
 (let (($x1542 (<= x_shift_period_855503_shift_period_857901_month 12)))
 (let (($x2173 (>= x_shift_period_855503_shift_period_857901_month 1)))
 (and $x2173 $x1542 $x1311 $x4723 $x4014 $x3167 (= x_shift_period_855503_shift_period_857901_epoch ?x4506))))))))))))))))))))))))))))))
(assert
 (let ((?x2447 (* 12 x_shift_period_855503_year)))
 (let ((?x170 (+ (+ ?x2447 (- x_shift_period_855503_month 1)) 0)))
 (let ((?x4674 (+ (mod ?x170 12) 1)))
 (let (($x2625 (= ?x4674 11)))
 (let (($x3726 (= ?x4674 9)))
 (let (($x175 (= ?x4674 6)))
 (let (($x2449 (= ?x4674 4)))
 (let (($x5110 (ite (= (mod (div ?x170 12) 100) 0) false (= (mod (div ?x170 12) 4) 0))))
 (let (($x2184 (ite (= (mod (div ?x170 12) 400) 0) true $x5110)))
 (let (($x1417 (= ?x4674 2)))
 (let ((?x3016 (ite $x1417 (ite $x2184 29 28) (ite (or $x2449 $x175 $x3726 $x2625) 30 31))))
 (let ((?x4709 (ite (<= x_shift_period_855503_day ?x3016) x_shift_period_855503_day ?x3016)))
 (let (($x5137 (= x_shift_period_855503_month 11)))
 (let (($x2288 (= x_shift_period_855503_month 9)))
 (let (($x3240 (= x_shift_period_855503_month 6)))
 (let (($x3319 (= x_shift_period_855503_month 4)))
 (let ((?x3644 (ite (or $x3319 $x3240 $x2288 $x5137) 30 31)))
 (let (($x5106 (= (mod x_shift_period_855503_year 4) 0)))
 (let (($x345 (= (mod x_shift_period_855503_year 100) 0)))
 (let (($x2635 (= (mod x_shift_period_855503_year 400) 0)))
 (let (($x5316 (ite $x2635 true (ite $x345 false $x5106))))
 (let (($x375 (= x_shift_period_855503_month 2)))
 (let ((?x1512 (ite $x375 (ite $x5316 29 28) ?x3644)))
 (let ((?x3805 (- (ite false (ite (= x_shift_period_855503_day ?x1512) ?x3016 ?x4709) ?x4709) 1)))
 (let ((?x5296 (ite (= ?x4674 8) 212 (ite $x3726 243 (ite (= ?x4674 10) 273 (ite $x2625 304 334))))))
 (let ((?x2381 (ite (= ?x4674 5) 120 (ite $x175 151 (ite (= ?x4674 7) 181 ?x5296)))))
 (let ((?x466 (ite (= ?x4674 1) 0 (ite $x1417 31 (ite (= ?x4674 3) 59 (ite $x2449 90 ?x2381))))))
 (let ((?x5459 (+ (* 365 (- (div ?x170 12) 1)) (div (- (div ?x170 12) 1) 4))))
 (let ((?x3730 (+ (- ?x5459 (div (- (div ?x170 12) 1) 100)) (div (- (div ?x170 12) 1) 400))))
 (let ((?x2614 (+ (+ ?x3730 (+ ?x466 (ite (and $x2184 (> ?x4674 2)) 1 0))) ?x3805)))
 (= x_shift_period_855503_shift_period_857901_epoch (+ ?x2614 15)))))))))))))))))))))))))))))))))
(assert
 (= x_shift_period_855503_shift_period_857901_epoch y_epoch))
(assert
 (let (($x3494 (>= y_day 1)))
(let (($x4415 (= y_month 6)))
(let (($x2620 (= y_year 2023)))
(let (($x4357 (and $x2620 $x4415 $x3494)))
(or (> y_year 2023) (and $x2620 (> y_month 6)) $x4357))))))
(check-sat)
